qbf_easy_train/easy_3721_SAT.qdimacs
p cnf 37 103
a 16 20 23 0
e 1 2 3 4 5 6 7 8 9 10 11 12 13 14 15 17 18 19 21 22 24 25 26 27 28 29 30 31 32 33 34 35 36 37 0
4 2 0
4 3 0
-2 -3 -4 0
-5 -1 0
-5 -4 0
1 4 5 0
1 -5 -6 0
-1 5 -6 0
1 5 6 0
-1 -5 6 0
8 -2 0
8 -7 0
2 7 -8 0
6 8 -9 0
-6 -8 -9 0
6 -8 9 0
-6 8 9 0
10 -9 0
10 -4 0
9 4 -10 0
-12 10 0
-12 -11 0
-10 11 12 0
-13 -7 0
-13 -7 0
7 13 0
10 13 -14 0
-10 -13 -14 0
10 -13 14 0
-10 13 14 0
15 12 0
15 -14 0
-12 14 -15 0
-17 -16 0
-17 7 0
16 -7 17 0
18 -17 0
18 -6 0
17 6 -18 0
-19 -17 0
-19 2 0
17 -2 19 0
21 -5 0
21 -2 0
5 2 -21 0
23 -5 0
23 22 0
5 -22 -23 0
24 -21 0
24 23 0
21 -23 -24 0
25 20 0
25 24 0
-20 -24 -25 0
-26 -19 0
-26 25 0
19 -25 26 0
27 10 0
27 7 0
-10 -7 -27 0
28 -6 0
28 23 0
6 -23 -28 0
29 -20 0
29 17 0
20 -17 -29 0
28 -29 -30 0
-28 29 -30 0
28 29 30 0
-28 -29 30 0
-27 -30 -31 0
27 30 -31 0
-27 30 31 0
27 -30 31 0
32 8 0
32 4 0
-8 -4 -32 0
33 -32 0
33 -9 0
32 9 -33 0
-34 -31 0
-34 -33 0
31 33 34 0
26 -34 -35 0
-26 34 -35 0
26 34 35 0
-26 -34 35 0
-36 18 0
-36 -35 0
-18 35 36 0
-37 -15 0
-37 -36 0
15 36 37 0
-24 -31 -30 20 37 -6 22 34 0
-31 28 -30 25 32 0
26 4 14 23 25 0
-27 29 -26 -13 2 35 1 34 0
31 15 -12 -33 37 -30 20 -22 0
-29 -15 16 -13 26 18 0
33 -1 20 2 -4 0
-37 2 -20 24 9 1 27 -4 0
-25 15 -23 27 0
37 0
