sat_easy_train/easy_3721_SAT.dimacs
p cnf 105 339
2 3 -4 0
-2 -3 -4 0
2 -3 4 0
-2 3 4 0
-5 1 0
-5 4 0
-1 -4 5 0
-8 6 0
-8 -7 0
-6 7 8 0
8 -9 -10 0
-8 9 -10 0
8 9 10 0
-8 -9 10 0
-10 2 -11 0
10 -2 -11 0
-10 -2 11 0
10 2 11 0
-5 11 -12 0
5 -11 -12 0
-5 -11 12 0
5 11 12 0
13 -3 0
13 8 0
3 -8 -13 0
-4 -14 -15 0
4 14 -15 0
-4 14 15 0
4 -14 15 0
-15 -16 -17 0
15 16 -17 0
-15 16 17 0
15 -16 17 0
-19 3 0
-19 -6 0
-3 6 19 0
20 -18 0
20 19 0
18 -19 -20 0
-21 -17 0
-21 20 0
17 -20 21 0
22 1 0
22 21 0
-1 -21 -22 0
23 -13 0
23 22 0
13 -22 -23 0
-26 24 0
-26 -25 0
-24 25 26 0
-27 20 0
-27 26 0
-20 -26 27 0
27 2 -28 0
-27 -2 -28 0
27 -2 28 0
-27 2 28 0
-28 -2 -29 0
28 2 -29 0
-28 2 29 0
28 -2 29 0
31 25 0
31 3 0
-25 -3 -31 0
32 31 0
32 -25 0
-31 25 -32 0
30 32 -33 0
-30 -32 -33 0
30 -32 33 0
-30 32 33 0
-34 29 0
-34 33 0
-29 -33 34 0
-35 -23 0
-35 -34 0
23 34 35 0
36 -30 0
36 20 0
30 -20 -36 0
38 37 0
38 37 0
-37 -38 0
38 -16 -39 0
-38 16 -39 0
38 16 39 0
-38 -16 39 0
-40 -36 0
-40 39 0
36 -39 40 0
40 28 -41 0
-40 -28 -41 0
40 -28 41 0
-40 28 41 0
42 -35 0
42 -41 0
35 41 -42 0
-43 12 0
-43 42 0
-12 -42 43 0
-44 21 0
-44 -16 0
-21 16 44 0
45 -2 0
45 24 0
2 -24 -45 0
46 25 0
46 6 0
-25 -6 -46 0
47 45 0
47 46 0
-45 -46 -47 0
48 -44 0
48 47 0
44 -47 -48 0
49 6 0
49 -18 0
-6 18 -49 0
-50 49 0
-50 -24 0
-49 24 50 0
-51 -38 0
-51 -45 0
38 45 51 0
52 50 0
52 -51 0
-50 51 -52 0
-49 -52 -53 0
49 52 -53 0
-49 52 53 0
49 -52 53 0
54 25 0
54 -25 0
55 53 0
55 -54 0
-53 54 -55 0
-48 55 -56 0
48 -55 -56 0
-48 -55 56 0
48 55 56 0
-57 26 0
-57 15 0
-26 -15 57 0
58 -45 0
58 2 0
45 -2 -58 0
59 58 0
59 21 0
-58 -21 -59 0
61 -59 0
61 60 0
59 -60 -61 0
62 -57 0
62 61 0
57 -61 -62 0
-64 -63 0
-64 -8 0
63 8 64 0
62 64 -65 0
-62 -64 -65 0
62 -64 65 0
-62 64 65 0
67 66 0
67 -14 0
-66 14 -67 0
68 4 0
68 -67 0
-4 67 -68 0
-69 -57 0
-69 -68 0
57 68 69 0
-65 -69 -70 0
65 69 -70 0
-65 69 70 0
65 -69 70 0
-71 56 0
-71 -70 0
-56 70 71 0
-72 -43 0
-72 71 0
43 -71 72 0
-73 -26 0
-73 -38 0
26 38 73 0
74 36 0
74 73 0
-36 -73 -74 0
-75 -68 0
-75 -66 0
68 66 75 0
76 -46 0
76 -75 0
46 75 -76 0
77 -76 0
77 8 0
76 -8 -77 0
-78 74 0
-78 77 0
-74 -77 78 0
-18 25 -79 0
18 -25 -79 0
-18 -25 79 0
18 25 79 0
-8 67 -80 0
8 -67 -80 0
-8 -67 80 0
8 67 80 0
-81 -80 0
-81 -4 0
80 4 81 0
82 79 0
82 81 0
-79 -81 -82 0
67 -68 -83 0
-67 68 -83 0
67 68 83 0
-67 -68 83 0
84 -46 0
84 59 0
46 -59 -84 0
-83 -84 -85 0
83 84 -85 0
-83 84 85 0
83 -84 85 0
-11 4 -86 0
11 -4 -86 0
-11 -4 86 0
11 4 86 0
-87 4 0
-87 -26 0
-4 26 87 0
-88 -86 0
-88 87 0
86 -87 88 0
-89 75 0
-89 -21 0
-75 21 89 0
-88 89 -90 0
88 -89 -90 0
-88 -89 90 0
88 89 90 0
-85 -90 -91 0
85 90 -91 0
-85 90 91 0
85 -90 91 0
92 82 0
92 91 0
-82 -91 -92 0
78 92 -93 0
-78 -92 -93 0
78 -92 93 0
-78 92 93 0
-94 72 0
-94 -93 0
-72 93 94 0
-95 37 0
-95 -16 0
-37 16 95 0
-96 -4 0
-96 -46 0
4 46 96 0
-97 -95 0
-97 96 0
95 -96 97 0
-98 -7 0
-98 -24 0
7 24 98 0
99 -2 0
99 -3 0
2 3 -99 0
-99 80 -100 0
99 -80 -100 0
-99 -80 100 0
99 80 100 0
-2 -19 -101 0
2 19 -101 0
-2 19 101 0
2 -19 101 0
-102 -100 0
-102 101 0
100 -101 102 0
-98 -102 -103 0
98 102 -103 0
-98 102 103 0
98 -102 103 0
97 103 -104 0
-97 -103 -104 0
97 -103 104 0
-97 103 104 0
94 -104 -105 0
-94 104 -105 0
94 104 105 0
-94 -104 105 0
-19 28 18 0
-65 93 87 0
-24 -22 -76 73 0
28 -30 20 0
-49 45 -36 15 0
-82 -65 -6 84 -91 0
-21 -48 -1 0
98 68 0
68 -12 -103 -48 0
-44 104 -76 0
46 56 92 -105 85 0
12 43 -52 0
-42 -67 -21 0
63 6 43 79 -17 0
-40 -5 0
-74 104 91 -63 0
34 24 -82 58 0
-67 86 -65 -88 33 0
105 -91 -2 82 -46 0
66 43 36 33 0
-8 -97 -7 -24 0
-42 0
39 37 -28 0
62 -67 35 98 0
88 50 -35 83 0
99 1 0
78 65 0
69 -60 -84 0
84 -5 -24 32 10 0
14 -97 80 -64 0
-62 -2 -91 6 0
25 -64 0
96 46 0
94 -67 -96 0
31 -81 60 5 0
11 -1 -23 92 -90 -18 0
-50 -89 -36 -97 -29 68 0
25 -50 12 -83 -93 11 0
3 68 -14 -37 72 0
74 83 -59 0
82 -28 -19 91 0
15 -6 75 0
-4 -90 -81 82 0
88 -81 -49 59 6 0
105 0
